Route #1: 40 1 12 3 28 25
Route #2: 15 33 43 31 27 35 20
Route #3: 5 17 2 36 14 39 24 26 9
Route #4: 18 11 23 10
Route #5: 7 29 16
Route #6: 32 38 22 42 30 8 4
Route #7: 6 21 34 41 37 13 19
Cost 909
Time 0.082554
